num_features = 62;
num_usage_limits = 9;
num_plans = 2;
num_addons = 2;

features = ["socialChannels","schedulePosts","additionalUsers","instagram","facebook","twitter","linkedin","pinterest","tailoredPostComposer","calendarView","buffLyLinkShortening","bitLyAndJMPeLinkShortening","customLinkShortening","customVideoThumpnails","multiChannelCampaigns","instagramFirstComment","instagramTagging","instagramHashtagManager","instagramStories","twitterHashtagSuggestions","facebookPageMentions","twitterMentions","shuffleQueue","performanceOverview","individualPostAnalytics","instagramHistoricalDataAccess","facebookHistoricalDataAccess","twitterHistoricalDataAccess","linkedinHistoricalDataAccess","pinterestHistoricalDataAccess","dataStorage","campaignAnalysis","boostedPostInsights","hashtagPerformance","audienceDemographics","machineLearningInsights","instagramStoriesAnalytics","shopifyPerformance","customReports","exportableReports","brandedReports","coverPage","gridView","importantCommentDetection","hotkeys","easyAccountSwitching","startPage","shopGrid","draftPosts","inviteAdditionalUsers","assignAccessAndPermissions","customAccessAndPermissions","approvalWorkflow","browserExtension","mobileApps","thirdPartyIntegrations","twoFactorAuthentication","googleAnalyticsIntegration","customUTMParameters","selfServiceKnowledgeBase","socialMediaSupport","emailSupport"];
usage_limits = ["socialChannelsLimit","postsPerScheduledQueuePerSocialAccountLimit","usersLimit","useInstagramHistoricalDataAccess","useFacebookHistoricalDataAccess","useTwitterHistoricalDataAccess","useLinkedinHistoricalDataAccess","usePinterestHistoricalDataAccess","useDataStorage"];
plans = ["FREE","ESSENTIALS"];
addons = ["teamPack","extraChannels"];

plans_prices = [0,6];
addons_prices = [6,6];

linked_features = array2d(USAGE_LIMITS, FEATURES, [
    % socialChannelsLimit
    1,0,0,0,0,0,0,0,0,0,0,0,0,0,0,0,0,0,0,0,0,0,0,0,0,0,0,0,0,0,0,0,0,0,0,0,0,0,0,0,0,0,0,0,0,0,0,0,0,0,0,0,0,0,0,0,0,0,0,0,0,0,
    % postsPerScheduledQueuePerSocialAccountLimit
    0,1,0,0,0,0,0,0,0,0,0,0,0,0,0,0,0,0,0,0,0,0,0,0,0,0,0,0,0,0,0,0,0,0,0,0,0,0,0,0,0,0,0,0,0,0,0,0,0,0,0,0,0,0,0,0,0,0,0,0,0,0,
    % usersLimit
    0,0,1,0,0,0,0,0,0,0,0,0,0,0,0,0,0,0,0,0,0,0,0,0,0,0,0,0,0,0,0,0,0,0,0,0,0,0,0,0,0,0,0,0,0,0,0,0,0,0,0,0,0,0,0,0,0,0,0,0,0,0,
    % useInstagramHistoricalDataAccess
    0,0,0,0,0,0,0,0,0,0,0,0,0,0,0,0,0,0,0,0,0,0,0,0,0,1,0,0,0,0,0,0,0,0,0,0,0,0,0,0,0,0,0,0,0,0,0,0,0,0,0,0,0,0,0,0,0,0,0,0,0,0,
    % useFacebookHistoricalDataAccess
    0,0,0,0,0,0,0,0,0,0,0,0,0,0,0,0,0,0,0,0,0,0,0,0,0,0,1,0,0,0,0,0,0,0,0,0,0,0,0,0,0,0,0,0,0,0,0,0,0,0,0,0,0,0,0,0,0,0,0,0,0,0,
    % useTwitterHistoricalDataAccess
    0,0,0,0,0,0,0,0,0,0,0,0,0,0,0,0,0,0,0,0,0,0,0,0,0,0,0,1,0,0,0,0,0,0,0,0,0,0,0,0,0,0,0,0,0,0,0,0,0,0,0,0,0,0,0,0,0,0,0,0,0,0,
    % useLinkedinHistoricalDataAccess
    0,0,0,0,0,0,0,0,0,0,0,0,0,0,0,0,0,0,0,0,0,0,0,0,0,0,0,0,1,0,0,0,0,0,0,0,0,0,0,0,0,0,0,0,0,0,0,0,0,0,0,0,0,0,0,0,0,0,0,0,0,0,
    % usePinterestHistoricalDataAccess
    0,0,0,0,0,0,0,0,0,0,0,0,0,0,0,0,0,0,0,0,0,0,0,0,0,0,0,0,0,1,0,0,0,0,0,0,0,0,0,0,0,0,0,0,0,0,0,0,0,0,0,0,0,0,0,0,0,0,0,0,0,0,
    % useDataStorage
    0,0,0,0,0,0,0,0,0,0,0,0,0,0,0,0,0,0,0,0,0,0,0,0,0,0,0,0,0,0,1,0,0,0,0,0,0,0,0,0,0,0,0,0,0,0,0,0,0,0,0,0,0,0,0,0,0,0,0,0,0,0
]);

plans_features = array2d(PLANS, FEATURES, [
    % FREE
    1,1,0,1,1,1,1,1,1,1,1,0,0,0,0,0,0,0,0,1,1,1,0,0,0,0,0,0,0,0,0,0,0,0,0,0,0,0,0,0,0,0,0,0,0,0,1,0,0,0,0,0,0,1,1,1,1,0,0,1,1,1,
    % ESSENTIALS
    1,1,0,1,1,1,1,1,1,1,1,1,1,1,1,1,1,1,1,1,1,1,1,1,1,1,1,1,1,1,1,1,1,1,1,1,1,1,1,0,0,0,1,1,1,1,1,1,0,0,0,0,0,1,1,1,1,1,1,1,1,1
]);
plans_usage_limits = array2d(PLANS, USAGE_LIMITS, [
    % FREE
    3,10,1,6,6,28,6,6,2,
    % ESSENTIALS
    1,100000000,1,6,6,28,6,6,2
]);

addons_features = array2d(ADDONS, FEATURES, [
    % teamPack
    0,0,1,0,0,0,0,0,0,0,0,0,0,0,0,0,0,0,0,0,0,0,0,0,0,0,0,0,0,0,0,0,0,0,0,0,0,0,0,1,1,1,0,0,0,0,0,0,1,1,1,1,1,0,0,0,0,0,0,0,0,0,
    % extraChannels
    0,0,0,0,0,0,0,0,0,0,0,0,0,0,0,0,0,0,0,0,0,0,0,0,0,0,0,0,0,0,0,0,0,0,0,0,0,0,0,0,0,0,0,0,0,0,0,0,0,0,0,0,0,0,0,0,0,0,0,0,0,0
]);
addons_usage_limits = array2d(ADDONS, USAGE_LIMITS, [
    % teamPack
    0,0,10000000000,0,0,0,0,0,0,
    % extraChannels
    0,0,0,0,0,0,0,0,0
]);
addons_usage_limits_extensions = array2d(ADDONS, USAGE_LIMITS, [
    % teamPack
    0,0,0,0,0,0,0,0,0,
    % extraChannels
    1,0,0,0,0,0,0,0,0
]);
addons_available_for = array2d(ADDONS, PLANS, [
    % teamPack
    0,1,
    % extraChannels
    0,1
]);
addons_depends_on = array2d(ADDONS, ADDONS, [
    % teamPack
    0,0,
    % extraChannels
    0,0
]);
